experiment/data/lkh-res/Vrp-Set-X-n384/Vrp-Set-X-n384-lkh/0.lkh1.vrp
NAME : 0
COMMENT : CVRP Instance
TYPE : CVRP
DIMENSION : 384
EDGE_WEIGHT_TYPE : EUC_2D
CAPACITY : 564
NODE_COORD_SECTION
1	5100	57000
2	69100	98500
3	6600	11900
4	50200	41500
5	43400	28900
6	42700	58400
7	34200	57600
8	79000	8700
9	31200	47500
10	90800	53100
11	84000	56600
12	86300	23200
13	28400	83300
14	51500	17500
15	900	24300
16	76800	20900
17	77700	58200
18	8400	50800
19	38000	52300
20	25500	26700
21	54400	96100
22	40800	66100
23	5700	58800
24	27800	4400
25	16800	72200
26	72600	40600
27	22300	38500
28	49500	7000
29	56000	63200
30	23500	65500
31	64300	12700
32	76500	26700
33	45900	97600
34	58500	96200
35	15400	79600
36	65000	44400
37	93100	5200
38	37700	1900
39	17800	63300
40	91700	80300
41	87100	67700
42	66700	16400
43	20800	65100
44	3500	43700
45	50300	68000
46	46200	87000
47	32200	12300
48	67700	82900
49	87800	40700
50	22300	25100
51	67100	9400
52	21800	35100
53	37500	22000
54	36700	56700
55	98600	86900
56	23600	76900
57	20200	99800
58	76100	71200
59	7500	52000
60	1400	73700
61	89500	63200
62	22400	72500
63	32800	38700
64	3600	30000
65	81700	53100
66	3100	28300
67	20900	57400
68	49000	39500
69	65900	12100
70	41000	20700
71	76100	45000
72	76800	34800
73	94300	34000
74	3900	95500
75	10600	15000
76	96300	37600
77	51600	14400
78	55400	12700
79	94400	7500
80	37300	8800
81	5400	500
82	3900	96500
83	5100	39200
84	99900	98300
85	56300	41000
86	53600	84800
87	78600	53300
88	4200	94800
89	87500	36100
90	53500	80000
91	58100	69600
92	41300	76300
93	14800	87500
94	48300	98300
95	44900	34300
96	21900	60000
97	37400	48700
98	27900	20000
99	47900	70500
100	27300	51900
101	86900	74500
102	77600	39500
103	34100	27500
104	59300	97300
105	77800	71600
106	27700	15200
107	78200	31400
108	89600	30100
109	57300	47800
110	4200	19800
111	12400	34800
112	10500	24000
113	55700	63000
114	78200	89700
115	77400	66900
116	84700	41100
117	35700	78200
118	16100	75500
119	70900	83200
120	94800	83000
121	43400	6000
122	29800	92100
123	99000	16100
124	94200	39900
125	57100	61100
126	26200	68000
127	25300	24600
128	56300	41600
129	38200	9100
130	57900	96200
131	21500	43900
132	24800	6500
133	81100	17500
134	72500	83400
135	16900	35900
136	64100	92600
137	62500	5200
138	62900	800
139	48600	39400
140	8300	46200
141	92400	93000
142	17500	33300
143	11500	19200
144	12300	53400
145	63400	52800
146	70200	29900
147	8600	17200
148	1100	88900
149	800	58300
150	49500	53800
151	300	1400
152	20100	66600
153	13100	34800
154	30000	32300
155	55100	16700
156	85100	89700
157	41200	9000
158	81300	6400
159	99300	34400
160	31700	99900
161	9000	59500
162	18000	81700
163	66700	2400
164	66600	28500
165	73300	66100
166	50600	77400
167	49300	95300
168	16200	45800
169	73500	60200
170	34500	77100
171	46800	63900
172	77600	10700
173	81900	75000
174	20400	78100
175	16500	85800
176	67800	21800
177	53600	95000
178	4700	42100
179	23900	15300
180	74400	66400
181	76600	6400
182	78800	44800
183	92000	33000
184	5400	70700
185	21600	47100
186	79300	25700
187	51700	96400
188	38900	50300
189	92300	56300
190	38300	38800
191	91700	89000
192	73400	59900
193	74900	24800
194	33300	1700
195	8400	71300
196	77600	42800
197	88800	45200
198	37100	46500
199	56500	30400
200	40800	82000
201	35700	61300
202	67500	69000
203	97900	29800
204	22200	48900
205	50700	18700
206	37900	79300
207	52600	59500
208	1700	54500
209	51300	14600
210	7000	51300
211	48400	86200
212	29400	98700
213	88000	47800
214	28700	73300
215	70900	3000
216	75500	20100
217	93900	68200
218	2300	97500
219	13500	79900
220	80800	47100
221	35200	27900
222	22400	90000
223	27500	13000
224	6000	46500
225	60800	30100
226	28800	81300
227	71800	75500
228	82900	74400
229	52300	79900
230	56900	15700
231	63400	66500
232	62700	26000
233	74300	33600
234	87000	1600
235	26700	62300
236	67500	85600
237	23900	49400
238	95000	61800
239	44500	65300
240	39400	76300
241	81600	36800
242	1900	82500
243	6800	54800
244	91200	10600
245	60000	7100
246	24500	64400
247	62000	36400
248	55500	40000
249	54900	23000
250	24300	72400
251	65700	92500
252	35500	4800
253	95100	48800
254	58600	85100
255	31800	31800
256	54900	84800
257	91700	300
258	29500	45300
259	81800	39800
260	7300	48200
261	89100	95200
262	34900	10000
263	95000	28400
264	6900	2900
265	14000	2000
266	17800	100
267	58500	86200
268	38100	45700
269	26600	91800
270	16400	50600
271	17400	28200
272	5600	12300
273	69300	86400
274	14600	60600
275	24400	46100
276	84600	27500
277	17600	9500
278	91200	43100
279	90300	58200
280	70300	55300
281	29700	36400
282	70300	75500
283	33200	59100
284	28300	48700
285	96800	44000
286	71800	49000
287	29500	70200
288	44900	99700
289	92600	60500
290	60400	18800
291	63200	89500
292	76100	89400
293	23900	15900
294	96300	54400
295	76200	41200
296	98600	37800
297	80200	91800
298	85100	89300
299	18000	26700
300	59300	54400
301	83700	71000
302	27600	70800
303	96300	73300
304	25500	87500
305	39600	88400
306	69900	10600
307	26100	85300
308	34800	74200
309	86000	80000
310	53500	34400
311	80800	93300
312	45000	91100
313	43300	33600
314	65200	31900
315	41100	4600
316	84200	3500
317	65400	38500
318	87100	6700
319	45700	53200
320	900	16200
321	88600	35600
322	46400	26700
323	41300	49300
324	14000	22700
325	81900	67300
326	66000	73900
327	32200	29900
328	62600	55600
329	97500	27600
330	13800	94100
331	30400	8600
332	56000	36700
333	20100	12000
334	53200	47300
335	6000	25500
336	24000	26700
337	17400	67800
338	92900	57700
339	36900	97200
340	66800	75600
341	89900	43500
342	36700	63400
343	58500	66800
344	4500	72200
345	20700	39400
346	34000	66500
347	14200	54300
348	27900	94500
349	25900	57400
350	29300	83300
351	5400	5800
352	48100	59500
353	4400	50700
354	12500	94200
355	41000	44400
356	46200	73400
357	88100	74300
358	69000	93500
359	87900	19500
360	23900	81300
361	91100	34700
362	28900	39700
363	20600	57100
364	53200	17400
365	61000	39900
366	18400	5200
367	71900	9800
368	26100	55200
369	27700	49700
370	8500	26700
371	81800	6700
372	5400	56800
373	54500	25100
374	65700	54900
375	48400	3700
376	73900	23700
377	86800	79000
378	1700	4200
379	77800	32800
380	84800	46400
381	3300	25500
382	23700	3700
383	33500	53100
384	11300	54400
DEMAND_SECTION
1	0
2	83
3	65
4	92
5	73
6	94
7	100
8	99
9	83
10	84
11	81
12	65
13	69
14	84
15	67
16	53
17	70
18	93
19	69
20	78
21	75
22	56
23	99
24	88
25	61
26	65
27	90
28	74
29	85
30	59
31	76
32	79
33	99
34	98
35	80
36	71
37	71
38	93
39	69
40	88
41	71
42	52
43	75
44	83
45	67
46	88
47	64
48	89
49	86
50	84
51	89
52	97
53	85
54	78
55	83
56	90
57	93
58	61
59	84
60	98
61	97
62	78
63	60
64	58
65	63
66	99
67	50
68	93
69	53
70	52
71	70
72	97
73	63
74	72
75	77
76	88
77	66
78	100
79	50
80	69
81	78
82	53
83	81
84	59
85	77
86	67
87	77
88	74
89	88
90	78
91	78
92	84
93	83
94	86
95	88
96	71
97	90
98	73
99	60
100	59
101	65
102	87
103	59
104	51
105	79
106	83
107	71
108	81
109	63
110	83
111	84
112	71
113	69
114	93
115	80
116	67
117	95
118	88
119	89
120	68
121	67
122	54
123	54
124	84
125	88
126	98
127	66
128	94
129	100
130	61
131	93
132	71
133	51
134	59
135	96
136	79
137	90
138	73
139	90
140	64
141	51
142	51
143	72
144	71
145	78
146	90
147	66
148	71
149	86
150	54
151	76
152	99
153	50
154	80
155	98
156	50
157	58
158	78
159	52
160	52
161	63
162	51
163	80
164	81
165	58
166	86
167	86
168	56
169	64
170	81
171	64
172	89
173	78
174	71
175	72
176	96
177	75
178	84
179	75
180	74
181	94
182	80
183	97
184	92
185	59
186	94
187	88
188	85
189	89
190	90
191	56
192	74
193	100
194	84
195	55
196	90
197	79
198	78
199	89
200	58
201	74
202	97
203	79
204	57
205	87
206	53
207	94
208	71
209	82
210	64
211	88
212	77
213	64
214	80
215	58
216	73
217	63
218	84
219	60
220	88
221	75
222	98
223	84
224	86
225	80
226	98
227	50
228	99
229	61
230	50
231	61
232	64
233	90
234	59
235	66
236	70
237	73
238	65
239	93
240	75
241	67
242	69
243	87
244	81
245	94
246	67
247	69
248	71
249	82
250	91
251	96
252	61
253	62
254	65
255	95
256	63
257	75
258	80
259	100
260	60
261	100
262	69
263	62
264	98
265	81
266	58
267	58
268	79
269	84
270	68
271	78
272	83
273	51
274	89
275	56
276	88
277	77
278	57
279	86
280	60
281	87
282	53
283	78
284	56
285	95
286	57
287	95
288	83
289	55
290	71
291	86
292	76
293	89
294	96
295	99
296	88
297	67
298	81
299	90
300	87
301	63
302	78
303	57
304	72
305	56
306	62
307	79
308	100
309	58
310	62
311	68
312	69
313	99
314	59
315	91
316	76
317	69
318	88
319	92
320	72
321	90
322	60
323	90
324	97
325	74
326	97
327	78
328	59
329	70
330	68
331	92
332	93
333	56
334	58
335	88
336	68
337	50
338	77
339	86
340	67
341	84
342	99
343	72
344	73
345	86
346	100
347	65
348	70
349	81
350	71
351	96
352	57
353	100
354	87
355	97
356	74
357	51
358	83
359	58
360	90
361	59
362	57
363	98
364	50
365	59
366	72
367	78
368	99
369	55
370	74
371	62
372	93
373	100
374	78
375	56
376	100
377	70
378	61
379	85
380	92
381	74
382	70
383	62
384	65
DEPOT_SECTION
1
-1
EOF
