experiment/data/lkh-res/Vrp-Set-X-n384/Vrp-Set-X-n384-lkh/0.lkh1.tour
NAME : 0.6723623.tour
COMMENT : Length = 6723623
COMMENT : Found by LKH-3 [Keld Helsgaun] Tue Apr  9 07:43:34 2024
TYPE : TOUR
DIMENSION : 435
TOUR_SECTION
1
233
276
108
361
321
89
241
387
208
149
60
148
242
344
184
403
39
43
235
349
368
363
384
393
70
77
78
28
375
121
315
157
430
291
136
251
358
104
34
130
413
232
172
8
158
181
367
306
412
283
6
150
319
323
188
19
410
226
350
13
307
304
360
174
400
31
51
215
163
138
137
245
419
7
352
207
125
328
300
54
406
192
169
17
11
65
87
286
145
404
222
269
348
160
212
57
93
425
113
29
343
91
166
356
346
401
270
168
223
47
331
132
382
333
398
281
5
322
205
14
209
53
434
143
277
366
266
265
75
147
64
424
90
236
273
292
311
297
114
134
408
173
228
301
41
61
325
115
399
342
22
99
45
171
239
201
67
409
312
167
94
33
288
339
122
385
23
195
219
35
118
25
337
161
389
271
299
50
127
20
336
52
397
274
347
144
18
210
243
372
435
58
105
101
357
377
309
119
48
417
88
74
218
82
354
330
175
162
422
378
151
81
264
351
3
272
390
59
260
140
178
44
224
353
392
24
194
38
252
129
80
262
396
279
10
294
253
285
278
341
391
32
186
12
359
123
329
203
263
427
275
258
198
268
355
97
9
411
96
246
30
126
250
62
152
416
204
237
185
131
135
142
153
111
431
345
27
154
327
103
221
255
433
139
68
310
332
248
4
383
428
318
244
79
37
257
234
316
371
402
225
164
146
107
379
72
314
407
287
92
200
211
46
305
56
388
49
124
76
296
159
73
183
386
374
280
220
182
196
295
26
420
189
338
289
238
217
303
120
40
426
302
308
240
206
117
170
214
414
373
249
290
42
69
230
155
364
432
199
376
193
16
133
216
176
418
326
340
282
227
180
165
202
231
429
100
369
284
190
95
313
63
362
395
98
106
179
293
324
112
370
405
66
381
15
320
110
335
83
415
71
380
213
197
116
259
102
421
229
86
256
254
267
177
21
187
423
2
261
141
84
55
191
156
298
394
128
85
365
247
317
36
109
334
-1
EOF
